
Gurobi 9.5.2 (mac64[arm]) logging started Mon May  1 17:17:03 2023

Set parameter LogFile to value "Java/output/special_mip/scenario_seed_1_nJob_40_machineCount_2/mip_increment_1/log.txt"
Gurobi Optimizer version 9.5.2 build v9.5.2rc0 (mac64[arm])
Thread count: 8 physical cores, 8 logical processors, using up to 8 threads
Optimize a model with 2700 rows, 50752 columns and 574105 nonzeros
Model fingerprint: 0xb458e7ff
Variable types: 0 continuous, 50752 integer (50752 binary)
Coefficient statistics:
  Matrix range     [1e+00, 2e+02]
  Objective range  [2e+00, 5e+06]
  Bounds range     [1e+00, 1e+00]
  RHS range        [1e+00, 1e+00]
Presolve removed 117 rows and 5206 columns
Presolve time: 0.58s
Presolved: 2583 rows, 45546 columns, 516125 nonzeros
Variable types: 0 continuous, 45546 integer (45542 binary)

Root relaxation: objective 1.190201e+04, 20922 iterations, 4.27 seconds (11.47 work units)
Total elapsed time = 5.03s

    Nodes    |    Current Node    |     Objective Bounds      |     Work
 Expl Unexpl |  Obj  Depth IntInf | Incumbent    BestBd   Gap | It/Node Time

     0     0 11902.0129    0  572          - 11902.0129      -     -    5s
H    0     0                    1.505832e+07 11902.0129   100%     -    5s
H    0     0                    5962187.0000 11902.0129   100%     -    5s
H    0     0                    5616495.0000 11902.0129   100%     -    5s
H    0     0                    5207945.0000 11902.0129   100%     -    5s
H    0     0                    1772737.0000 11952.9857  99.3%     -    8s
     0     0 11952.9857    0  688 1772737.00 11952.9857  99.3%     -    9s
H    0     0                    1727169.0000 11952.9857  99.3%     -    9s
H    0     0                    565115.00000 11952.9857  97.9%     -    9s
     0     0 11955.6320    0  715 565115.000 11955.6320  97.9%     -   10s
     0     0 11955.7979    0  682 565115.000 11955.7979  97.9%     -   10s
     0     0 11955.7979    0  687 565115.000 11955.7979  97.9%     -   11s
H    0     0                    557990.00000 11986.9820  97.9%     -   15s
     0     0 11986.9820    0  745 557990.000 11986.9820  97.9%     -   15s
H    0     0                    368933.00000 11986.9820  96.8%     -   15s
     0     0 11996.0649    0  794 368933.000 11996.0649  96.7%     -   17s
     0     0 11996.2487    0  813 368933.000 11996.2487  96.7%     -   17s
     0     0 11996.2504    0  815 368933.000 11996.2504  96.7%     -   17s
     0     0 12011.1021    0  792 368933.000 12011.1021  96.7%     -   20s
H    0     0                    346182.00000 12011.1021  96.5%     -   26s
     0     0 12013.9007    0  878 346182.000 12013.9007  96.5%     -   27s
     0     0 12014.3794    0  858 346182.000 12014.3794  96.5%     -   28s
     0     0 12014.4986    0  880 346182.000 12014.4986  96.5%     -   28s
     0     0 12014.5173    0  877 346182.000 12014.5173  96.5%     -   28s
     0     0 12024.0328    0  892 346182.000 12024.0328  96.5%     -   30s
H    0     0                    344366.00000 12024.0328  96.5%     -   30s
H    0     0                    329794.00000 12024.0328  96.4%     -   30s
H    0     0                    321128.00000 12024.0328  96.3%     -   31s
     0     0 12026.0776    0  898 321128.000 12026.0776  96.3%     -   32s
     0     0 12026.6237    0  932 321128.000 12026.6237  96.3%     -   32s
     0     0 12026.7476    0  933 321128.000 12026.7476  96.3%     -   33s
     0     0 12026.7498    0  936 321128.000 12026.7498  96.3%     -   33s
     0     0 12041.1778    0  909 321128.000 12041.1778  96.3%     -   35s
     0     0 12051.7838    0  897 321128.000 12051.7838  96.2%     -   38s
     0     0 12052.7850    0  921 321128.000 12052.7850  96.2%     -   38s
     0     0 12053.7194    0  933 321128.000 12053.7194  96.2%     -   39s
     0     0 12053.7299    0  926 321128.000 12053.7299  96.2%     -   39s
     0     0 12062.8769    0  976 321128.000 12062.8769  96.2%     -   42s
     0     0 12064.0074    0 1024 321128.000 12064.0074  96.2%     -   42s
     0     0 12064.5126    0 1014 321128.000 12064.5126  96.2%     -   43s
     0     0 12064.5676    0 1023 321128.000 12064.5676  96.2%     -   43s
     0     0 12071.2105    0 1023 321128.000 12071.2105  96.2%     -   46s
     0     0 12071.8899    0 1029 321128.000 12071.8899  96.2%     -   46s
     0     0 12072.0331    0 1026 321128.000 12072.0331  96.2%     -   47s
     0     0 12072.0712    0 1040 321128.000 12072.0712  96.2%     -   47s
     0     0 12075.0926    0 1012 321128.000 12075.0926  96.2%     -   48s
H    0     0                    302828.00000 12075.0926  96.0%     -   48s
     0     0 12075.2490    0 1036 302828.000 12075.2490  96.0%     -   49s
     0     0 12075.3622    0 1045 302828.000 12075.3622  96.0%     -   49s
     0     0 12075.3651    0 1053 302828.000 12075.3651  96.0%     -   49s
     0     0 12078.4529    0 1017 302828.000 12078.4529  96.0%     -   51s
H    0     0                    301984.00000 12078.4529  96.0%     -   51s
     0     0 12079.3695    0 1009 301984.000 12079.3695  96.0%     -   52s
     0     0 12079.9583    0 1036 301984.000 12079.9583  96.0%     -   53s
     0     0 12080.1518    0 1059 301984.000 12080.1518  96.0%     -   53s
     0     0 12080.1729    0 1055 301984.000 12080.1729  96.0%     -   53s
     0     0 12094.1670    0 1007 301984.000 12094.1670  96.0%     -   58s
H    0     0                    257076.00000 12094.1670  95.3%     -   58s
     0     0 12101.4307    0 1070 257076.000 12101.4307  95.3%     -   60s
     0     0 12103.4098    0 1077 257076.000 12103.4098  95.3%     -   61s
     0     0 12103.5221    0 1085 257076.000 12103.5221  95.3%     -   62s
     0     0 12103.6429    0 1088 257076.000 12103.6429  95.3%     -   62s
     0     0 12103.7186    0 1074 257076.000 12103.7186  95.3%     -   62s
     0     0 12112.5608    0 1066 257076.000 12112.5608  95.3%     -   65s
H    0     0                    252867.00000 12112.5608  95.2%     -   77s
     0     0 12113.2091    0 1081 252867.000 12113.2091  95.2%     -   78s
     0     0 12113.8686    0 1090 252867.000 12113.8686  95.2%     -   79s
     0     0 12113.9310    0 1081 252867.000 12113.9310  95.2%     -   79s
     0     0 12116.5065    0 1102 252867.000 12116.5065  95.2%     -   80s
H    0     0                    252852.00000 12116.5065  95.2%     -   80s
H    0     0                    209915.00000 12116.5065  94.2%     -   80s
     0     0 12116.7880    0 1110 209915.000 12116.7880  94.2%     -   81s
     0     0 12117.1155    0 1107 209915.000 12117.1155  94.2%     -   81s
     0     0 12117.1993    0 1126 209915.000 12117.1993  94.2%     -   81s
     0     0 12118.3350    0 1108 209915.000 12118.3350  94.2%     -   82s
H    0     0                    110688.00000 12118.9045  89.1%     -   83s
     0     0 12118.9045    0 1118 110688.000 12118.9045  89.1%     -   83s
     0     0 12119.0627    0 1091 110688.000 12119.0627  89.1%     -   84s
     0     0 12119.0928    0 1101 110688.000 12119.0928  89.1%     -   84s
     0     0 12121.4614    0 1109 110688.000 12121.4614  89.0%     -   85s
H    0     0                    110046.00000 12121.4614  89.0%     -   85s
H    0     0                    104018.00000 12121.4614  88.3%     -   85s
     0     0 12122.9660    0 1127 104018.000 12122.9660  88.3%     -   86s
     0     0 12123.1625    0 1138 104018.000 12123.1625  88.3%     -   87s
     0     0 12123.1672    0 1150 104018.000 12123.1672  88.3%     -   87s
H    0     0                    92094.000000 12125.2904  86.8%     -   88s
     0     0 12125.2904    0 1140 92094.0000 12125.2904  86.8%     -   88s
H    0     0                    92014.000000 12125.2904  86.8%     -   88s
H    0     0                    91994.000000 12125.2904  86.8%     -   88s
     0     0 12125.6896    0 1141 91994.0000 12125.6896  86.8%     -   89s
     0     0 12125.8623    0 1154 91994.0000 12125.8623  86.8%     -   89s
     0     0 12125.8864    0 1154 91994.0000 12125.8864  86.8%     -   89s
     0     0 12128.3310    0 1135 91994.0000 12128.3310  86.8%     -   90s
H    0     0                    75959.000000 12128.3310  84.0%     -   91s
     0     0 12128.6352    0 1133 75959.0000 12128.6352  84.0%     -   91s
H    0     0                    63631.000000 12128.7785  80.9%     -   92s
H    0     0                    63197.000000 12128.7785  80.8%     -   92s
     0     0 12128.7785    0 1142 63197.0000 12128.7785  80.8%     -   92s
     0     0 12128.7889    0 1152 63197.0000 12128.7889  80.8%     -   92s
H    0     0                    63187.000000 12130.0825  80.8%     -   93s
     0     0 12130.0825    0 1102 63187.0000 12130.0825  80.8%     -   93s
H    0     0                    63165.000000 12130.3102  80.8%     -   93s
H    0     0                    63012.000000 12130.3102  80.7%     -   93s
     0     0 12130.3102    0 1125 63012.0000 12130.3102  80.7%     -   93s
H    0     0                    62789.000000 12130.3134  80.7%     -   93s
     0     0 12130.3134    0 1125 62789.0000 12130.3134  80.7%     -   93s
     0     0 12130.9570    0 1129 62789.0000 12130.9570  80.7%     -   94s
     0     0 12130.9570    0 1122 62789.0000 12130.9570  80.7%     -   95s
H    0     0                    62498.000000 12130.9570  80.6%     -  107s
     0     0 12130.9570    0  564 62498.0000 12130.9570  80.6%     -  112s
H    0     0                    62482.000000 12130.9570  80.6%     -  112s
H    0     0                    62468.000000 12130.9570  80.6%     -  112s
H    0     0                    52200.000000 12130.9570  76.8%     -  112s
     0     0 12130.9570    0  686 52200.0000 12130.9570  76.8%     -  115s
     0     0 12130.9570    0  790 52200.0000 12130.9570  76.8%     -  118s
     0     0 12130.9570    0  862 52200.0000 12130.9570  76.8%     -  121s
     0     0 12130.9570    0  928 52200.0000 12130.9570  76.8%     -  124s
     0     0 12130.9570    0  988 52200.0000 12130.9570  76.8%     -  127s
     0     0 12130.9570    0 1037 52200.0000 12130.9570  76.8%     -  129s
     0     0 12130.9570    0 1063 52200.0000 12130.9570  76.8%     -  130s
     0     0 12130.9570    0 1086 52200.0000 12130.9570  76.8%     -  130s
     0     0 12130.9570    0 1106 52200.0000 12130.9570  76.8%     -  130s
     0     0 12130.9570    0 1110 52200.0000 12130.9570  76.8%     -  130s
     0     0 12131.5165    0 1074 52200.0000 12131.5165  76.8%     -  131s
     0     0 12131.5580    0 1079 52200.0000 12131.5580  76.8%     -  131s
     0     0 12131.5646    0 1082 52200.0000 12131.5646  76.8%     -  131s
     0     0 12137.4768    0 1081 52200.0000 12137.4768  76.7%     -  133s
H    0     0                    43206.000000 12137.4768  71.9%     -  133s
     0     0 12140.8071    0 1091 43206.0000 12140.8071  71.9%     -  135s
     0     0 12141.6919    0 1104 43206.0000 12141.6919  71.9%     -  135s
     0     0 12142.0778    0 1105 43206.0000 12142.0778  71.9%     -  135s
     0     0 12142.1245    0 1118 43206.0000 12142.1245  71.9%     -  135s
     0     0 12148.9651    0 1139 43206.0000 12148.9651  71.9%     -  137s
H    0     0                    43173.000000 12148.9651  71.9%     -  149s
     0     0 12150.4289    0 1150 43173.0000 12150.4289  71.9%     -  149s
     0     0 12150.9676    0 1146 43173.0000 12150.9676  71.9%     -  150s
     0     0 12151.1567    0 1174 43173.0000 12151.1567  71.9%     -  150s
     0     0 12151.2035    0 1175 43173.0000 12151.2035  71.9%     -  150s
     0     0 12155.3901    0 1207 43173.0000 12155.3901  71.8%     -  152s
H    0     0                    43156.000000 12155.3901  71.8%     -  152s
     0     0 12156.5624    0 1209 43156.0000 12156.5624  71.8%     -  153s
     0     0 12157.4888    0 1246 43156.0000 12157.4888  71.8%     -  154s
     0     0 12157.6531    0 1254 43156.0000 12157.6531  71.8%     -  154s
     0     0 12160.4192    0 1224 43156.0000 12160.4192  71.8%     -  155s
     0     0 12161.8784    0 1242 43156.0000 12161.8784  71.8%     -  156s
     0     0 12163.2316    0 1242 43156.0000 12163.2316  71.8%     -  157s
     0     0 12164.2416    0 1244 43156.0000 12164.2416  71.8%     -  157s
     0     0 12164.7509    0 1235 43156.0000 12164.7509  71.8%     -  158s
     0     0 12164.7877    0 1254 43156.0000 12164.7877  71.8%     -  158s
     0     0 12167.8481    0 1226 43156.0000 12167.8481  71.8%     -  159s
     0     0 12169.6757    0 1217 43156.0000 12169.6757  71.8%     -  161s
     0     0 12170.2651    0 1242 43156.0000 12170.2651  71.8%     -  161s
     0     0 12170.7572    0 1264 43156.0000 12170.7572  71.8%     -  162s
     0     0 12170.9614    0 1259 43156.0000 12170.9614  71.8%     -  162s
     0     0 12174.0843    0 1230 43156.0000 12174.0843  71.8%     -  164s
     0     0 12175.9160    0 1260 43156.0000 12175.9160  71.8%     -  165s
     0     0 12176.6133    0 1275 43156.0000 12176.6133  71.8%     -  166s
     0     0 12176.7564    0 1291 43156.0000 12176.7564  71.8%     -  166s
     0     0 12178.5993    0 1245 43156.0000 12178.5993  71.8%     -  167s
     0     0 12179.1358    0 1254 43156.0000 12179.1358  71.8%     -  168s
     0     0 12179.3828    0 1267 43156.0000 12179.3828  71.8%     -  168s
     0     0 12179.4931    0 1279 43156.0000 12179.4931  71.8%     -  169s
     0     0 12180.1242    0 1285 43156.0000 12180.1242  71.8%     -  170s
     0     0 12180.1242    0 1272 43156.0000 12180.1242  71.8%     -  170s
     0     2 12180.1301    0 1266 43156.0000 12180.1301  71.8%     -  180s
     3     8 12190.4481    2 1183 43156.0000 12182.3828  71.8%  2466  187s
     7    16 12204.5028    3 1234 43156.0000 12183.9097  71.8%  4236  192s
    15    24 12212.2757    4 1262 43156.0000 12185.1065  71.8%  4432  198s
    23    32 12213.3262    4 1253 43156.0000 12185.1146  71.8%  5292  212s
H   31    40                    43151.000000 12187.9698  71.8%  5869  239s
H   33    40                    43144.000000 12187.9698  71.8%  5616  239s
H   36    40                    43128.000000 12187.9698  71.7%  5382  239s
    39    48 12223.2152    5 1197 43128.0000 12187.9698  71.7%  5386  249s
    47    56 12220.3799    6 1236 43128.0000 12195.0156  71.7%  5682  254s
    55    65 12232.5787    6 1214 43128.0000 12195.0156  71.7%  5869  261s
H   64    74                    42880.000000 12197.7474  71.6%  5847  268s
H   67    74                    42620.000000 12197.7474  71.4%  5823  268s
H   68    74                    16533.000000 12197.7474  26.2%  5817  268s
    73    82 12228.5551    7 1174 16533.0000 12197.7474  26.2%  5739  275s
    81    90 12235.9177    8 1162 16533.0000 12198.5103  26.2%  6066  286s
    89    98 12240.3449    8 1172 16533.0000 12198.5103  26.2%  6184  294s
    97   106 12253.7317    9 1188 16533.0000 12198.5103  26.2%  6301  301s
H  105   114                    15605.000000 12198.5103  21.8%  6288  309s
H  106   114                    15492.000000 12198.5103  21.3%  6260  309s
H  107   114                    14533.000000 12198.5103  16.1%  6255  309s
   113   127 12243.9549   10 1174 14533.0000 12198.5103  16.1%  6273  317s
   126   137 12265.9808   11 1190 14533.0000 12198.5103  16.1%  6338  324s
H  127   137                    14493.000000 12198.5103  15.8%  6288  324s
   136   148 12273.3859   11 1125 14493.0000 12198.5103  15.8%  6356  339s
H  146   148                    14385.000000 12198.5103  15.2%  6283  339s
   147   160 12272.0029   12 1157 14385.0000 12198.5103  15.2%  6295  348s
   159   176 12277.5542   13 1171 14385.0000 12198.5103  15.2%  6413  366s
H  175   188                    13564.000000 12198.5103  10.1%  6595  375s
   187   203 12284.1331   15 1135 13564.0000 12198.5103  10.1%  6478  393s
   202   221 12285.5433   16 1148 13564.0000 12198.5103  10.1%  6379  403s
H  220   232                    13381.000000 12198.5103  8.84%  6319  455s
H  226   232                    13372.000000 12198.5103  8.78%  6482  455s
   231   250 12299.1228   18 1151 13372.0000 12198.5103  8.78%  6488  467s
   251   272 12301.3359   19 1150 13372.0000 12198.5103  8.78%  6485  478s
   275   291 12302.7334   20 1148 13372.0000 12198.5103  8.78%  6400  495s
   300   307 12319.6760   21 1123 13372.0000 12198.5103  8.78%  6329  508s
H  320   325                    13361.000000 12198.5103  8.70%  6285  518s
   338   345 12364.6041   24 1078 13361.0000 12198.5103  8.70%  6298  531s
   358   367 12380.7172   25 1082 13361.0000 12198.5103  8.70%  6393  545s
   380   388 12376.9419   26 1150 13361.0000 12198.5103  8.70%  6441  557s
   401   415 12360.9991   28 1110 13361.0000 12198.5103  8.70%  6366  570s
   430   435 12384.5868   29 1091 13361.0000 12198.5103  8.70%  6291  600s
H  446   435                    13320.000000 12198.5103  8.42%  6232  600s

Cutting planes:
  Cover: 7
  Clique: 221
  MIR: 331
  StrongCG: 187
  GUB cover: 296
  Zero half: 1
  RLT: 6

Explored 450 nodes (3068454 simplex iterations) in 600.03 seconds (1912.71 work units)
Thread count was 8 (of 8 available processors)

Solution count 10: 13320 13361 13372 ... 15605

Time limit reached
Best objective 1.332000000000e+04, best bound 1.219900000000e+04, gap 8.4159%
